
set I:= 2	3	4 5 6	7 	8	9	10	11 12 13	14	15 16	17	18	19	20 21 22 
23 24 25 26 27 28 29 30 31 32 33 34 35 36 37 38 39 40 41 42 43 44 45 46 47 48 49 50 51
52 53 54 55 56 57 58 59 60 61 62 63 64 65 66 67 68 69 70 71 72 73 74 75 76;

set Nodos:= 1 2	3	4 5 6	7 	8	9	10	11 12 13	14	15 16	17	18	19	20 21 22
23 24 25 26 27 28 29 30 31 32 33 34 35 36 37 38 39 40 41 42 43 44 45 46 47 48 49 50 51
52 53 54 55 56 57 58 59 60 61 62 63 64 65 66 67 68 69 70 71 72 73 74 75 76;

set K:= 1 2 3;
set R:= A B C;
set T:= A B C;


param: xcoord	ycoord :=
1	0	0
2	87	-18
3	71	-19
4	81	-11
5	80	-17
6	74	-16
7	75	-9
8	76	-6
9	86	-11
10	85	-19
11	83	-19
12	70	-10
13	48	21
14	23	33
15	35	36
16	38	42
17	22	26
18	51	21
19	30	39
20	30	26
21	29	23
22	27	20
23	36	23
24	28	20
25	45	28
26	-61	38
27	-54	50
28	-56	36
29	-57	26
30	-61	40
31	-41	39
32	-61	30
33	-45	46
34	-53	62
35	-34	37
36	-47	33
37	-52	61
38	-33	34
39	-35	62
40	-71	45
41	-22	-10
42	-29	-2
43	-29	3
44	-30	3
45	-33	-11
46	-31	1
47	-31	-10
48	-22	-9
49	-25	-4
50	-32	-12
51	-30	-5
52	-34	2
53	-31	-12
54	-31	-10
55	-27	1
56	-30	-8
57	-31	-6
58	-23	-1
59	-21	-3
60	-33	1
61	59	-61
62	73	-52
63	72	-61
64	76	-63
65	59	-63
66	62	-63
67	59	-54
68	70	-55
69	62	-59
70	60	-62
71	56	19
72	47	15
73	49	12
74	58	9
75	51	13
76	57	19


;

param Q:=
1   20000
2   25000
3   35000
;

param P:=
A   15000
B   15000
C   20000
;


param alfa:=
A   1
B    .70
C    .30
;

param q:  A   B   C:=
1	0	0	0
2	3215	0	0
3	0	3110	0
4	0	0	3635
5	250	0	0
6	0	1175	0
7	0	0	150
8	25	0	0
9	0	215	0
10	0	0	1990
11	405	0	0
12	0	70	0
13	0	0	855
14	1045	0	0
15	0	100	0
16	0	0	65
17	465	0	0
18	0	80	0
19	0	0	15
20	1955	0	0
21	0	260	0
22	0	0	4525
23	280	0	0
24	0	1015	0
25	0	0	435
26	5020	0	0
27	0	570	0
28	0	0	2635
29	20	0	0
30	0	140	0
31	0	0	470
32	40	0	0
33	0	695	0
34	0	0	205
35	35	0	0
36	0	2450	0
37	0	0	15
38	375	0	0
39	0	225	0
40	0	0	15
41	2050	0	0
42	0	220	0
43	0	0	3390
44	120	0	0
45	0	50	0
46	0	0	60
47	1340	0	0
48	0	35	0
49	0	0	255
50	2240	0	0
51	0	2295	0
52	0	0	20
53	100	0	0
54	0	2065	0
55	0	0	3355
56	975	0	0
57	0	80	0
58	0	0	3415
59	20	0	0
60	0	215	0
61	0	0	225
62	310	0	0
63	0	70	0
64	0	0	380
65	505	0	0
66	0	4230	0
67	0	0	785
68	15	0	0
69	0	65	0
70	0	0	1985
71	115	0	0
72	0	435	0
73	0	0	30
74	15	0	0
75	0	15	0
76	0	0	1150

;

param a:  A   B   C:=
1	0	0	0
2	1	0	0
3	0	1	0
4	0	0	1
5	1	0	0
6	0	1	0
7	0	0	1
8	1	0	0
9	0	1	0
10	0	0	1
11	1	0	0
12	0	1	0
13	0	0	1
14	1	0	0
15	0	1	0
16	0	0	1
17	1	0	0
18	0	1	0
19	0	0	1
20	1	0	0
21	0	1	0
22	0	0	1
23	1	0	0
24	0	1	0
25	0	0	1
26	1	0	0
27	0	1	0
28	0	0	1
29	1	0	0
30	0	1	0
31	0	0	1
32	1	0	0
33	0	1	0
34	0	0	1
35	1	0	0
36	0	1	0
37	0	0	1
38	1	0	0
39	0	1	0
40	0	0	1
41	1	0	0
42	0	1	0
43	0	0	1
44	1	0	0
45	0	1	0
46	0	0	1
47	1	0	0
48	0	1	0
49	0	0	1
50	1	0	0
51	0	1	0
52	0	0	1
53	1	0	0
54	0	1	0
55	0	0	1
56	1	0	0
57	0	1	0
58	0	0	1
59	1	0	0
60	0	1	0
61	0	0	1
62	1	0	0
63	0	1	0
64	0	0	1
65	1	0	0
66	0	1	0
67	0	0	1
68	1	0	0
69	0	1	0
70	0	0	1
71	1	0	0
72	0	1	0
73	0	0	1
74	1	0	0
75	0	1	0
76	0	0	1

;

param qu :=
1	0
2	3215
3	3110
4	3635
5	250
6	1175
7	150
8	25
9	215
10	1990
11	405
12	70
13	855
14	1045
15	100
16	65
17	465
18	80
19	15
20	1955
21	260
22	4525
23	280
24	1015
25	435
26	5020
27	570
28	2635
29	20
30	140
31	470
32	40
33	695
34	205
35	35
36	2450
37	15
38	375
39	225
40	15
41	2050
42	220
43	3390
44	120
45	50
46	60
47	1340
48	35
49	255
50	2240
51	2295
52	20
53	100
54	2065
55	3355
56	975
57	80
58	3415
59	20
60	215
61	225
62	310
63	70
64	380
65	505
66	4230
67	785
68	15
69	65
70	1985
71	115
72	435
73	30
74	15
75	15
76	1150

;

set IT:=
(	2	,	A	)
(	3	,	B	)
(	4	,	C	)
(	5	,	A	)
(	6	,	B	)
(	7	,	C	)
(	8	,	A	)
(	9	,	B	)
(	10	,	C	)
(	11	,	A	)
(	12	,	B	)
(	13	,	C	)
(	14	,	A	)
(	15	,	B	)
(	16	,	C	)
(	17	,	A	)
(	18	,	B	)
(	19	,	C	)
(	20	,	A	)
(	21	,	B	)
(	22	,	C	)
(	23	,	A	)
(	24	,	B	)
(	25	,	C	)
(	26	,	A	)
(	27	,	B	)
(	28	,	C	)
(	29	,	A	)
(	30	,	B	)
(	31	,	C	)
(	32	,	A	)
(	33	,	B	)
(	34	,	C	)
(	35	,	A	)
(	36	,	B	)
(	37	,	C	)
(	38	,	A	)
(	39	,	B	)
(	40	,	C	)
(	41	,	A	)
(	42	,	B	)
(	43	,	C	)
(	44	,	A	)
(	45	,	B	)
(	46	,	C	)
(	47	,	A	)
(	48	,	B	)
(	49	,	C	)
(	50	,	A	)
(	51	,	B	)
(	52	,	C	)
(	53	,	A	)
(	54	,	B	)
(	55	,	C	)
(	56	,	A	)
(	57	,	B	)
(	58	,	C	)
(	59	,	A	)
(	60	,	B	)
(	61	,	C	)
(	62	,	A	)
(	63	,	B	)
(	64	,	C	)
(	65	,	A	)
(	66	,	B	)
(	67	,	C	)
(	68	,	A	)
(	69	,	B	)
(	70	,	C	)
(	71	,	A	)
(	72	,	B	)
(	73	,	C	)
(	74	,	A	)
(	75	,	B	)
(	76	,	C	)

;